(declare-fun e () String)
(declare-fun c () String)
(declare-fun g () String)
(declare-fun b () String)
(declare-fun d () String)
(declare-fun f () String)
(declare-fun a () String)
(declare-fun h () String)
(assert (= (str.++ "ae" f) (str.++ e "aha")))
(assert (= (str.++ "h" f d c "e") (str.++ e h "b" b "g" h)))
(assert (= (str.++ a g "gee") (str.++ "ab" b "bc")))

(check-sat)
